% demand
num_movements = 35;
loading_factor = [1100, 1300, 1200, 1750, 1000, 800, 1250, 1750, 850, 1400, 1700, 1200, 1250, 850, 1850, 950, 1800, 800, 1500, 1850, 1000, 1500, 2000, 800, 1400, 950, 1500, 950, 1850, 1850, 1600, 1850, 1700, 1750, 1850];
pickup_time = [0, 0, 0, 0, 0, 0, 0, 0, 0, 3, 3, 3, 4, 4, 5, 5, 5, 6, 6, 7, 7, 7, 7, 7, 7, 7, 8, 8, 9, 9, 9, 11, 12, 12, 12];
delivery_time = [4, 1, 6, 4, 4, 7, 2, 2, 4, 4, 4, 4, 6, 6, 6, 6, 6, 7, 10, 9, 9, 8, 9, 12, 12, 8, 10, 9, 10, 11, 11, 13, 13, 13, 13];

% transporter definition
total_capacity = 11000;
num_decks = 4;
capacity = [3000, 3000, 1000, 4000];

% ways out of decks
num_ways_out = 2;
paths_out = array3d(decks, ways_out, decks, [
% ways out of deck d1
2, 4, 0, 0, 3, 4, 0, 0, 

% ways out of deck d2
4, 0, 0, 0, 0, 0, 0, 0,	

% ways out of deck d3
4, 0, 0, 0, 0, 0, 0, 0,	

% ways out of deck d4
0, 0, 0, 0,	0, 0, 0, 0,	

]);

